1
2 6 -1
2
1 3 4 -1
3
2 9 -1
4
2 8 -1
5
6 11 -1
6
5 7 1 -1
7
6 10 -1
8
4 -1
9
3 -1
10
7 -1
11
5 -1
-2
1 1040 958 2 457 884 3 449 864 4 446 900 5 1094 965 6 1075 947 7 1081 925 8 386 1180 9 524 301 10 1142 582 11 1585 1051 -2
